min: c;

c = 3.73642122170637 * u2_t7_h3 + 3.19139627476077 * u2_t7_h4 + 3.48676064790369 * u2_t2_h5 + 3.48676064790369 * u2_t3_h5 + 3.48676064790369 * u2_t7_h5 + 4.22940993859533 * u2_t2_h6 + 4.22940993859533 * u2_t3_h6 + 4.22940993859533 * u2_t4_h6 + 4.22940993859533 * u2_t7_h6 + 4.22940993859533 * u2_t10_h6 + 3.6382811870942 * u2_t2_h7 + 3.6382811870942 * u2_t3_h7 + 3.6382811870942 * u2_t4_h7 + 3.6382811870942 * u2_t7_h7 + 3.6382811870942 * u2_t10_h7 + 5.10212484141993 * u2_t2_h8 + 5.10212484141993 * u2_t3_h8 + 5.10212484141993 * u2_t4_h8 + 5.10212484141993 * u2_t7_h8 + 5.10212484141993 * u2_t10_h8 + 4.93929378924416 * u2_t2_h9 + 4.93929378924416 * u2_t3_h9 + 4.93929378924416 * u2_t4_h9 + 4.93929378924416 * u2_t7_h9 + 4.93929378924416 * u2_t10_h9 + 5.61146559234413 * u2_t2_h10 + 5.61146559234413 * u2_t3_h10 + 5.61146559234413 * u2_t4_h10 + 5.61146559234413 * u2_t7_h10 + 5.61146559234413 * u2_t10_h10 + 4.29969468030008 * u2_t1_h11 + 4.29969468030008 * u2_t2_h11 + 4.29969468030008 * u2_t3_h11 + 4.29969468030008 * u2_t4_h11 + 4.29969468030008 * u2_t7_h11 + 4.29969468030008 * u2_t10_h11 + 6.11540886553968 * u2_t1_h12 + 6.11540886553968 * u2_t3_h12 + 6.11540886553968 * u2_t4_h12 + 6.11540886553968 * u2_t7_h12 + 4.34492279945755 * u2_t1_h13 + 4.34492279945755 * u2_t3_h13 + 4.34492279945755 * u2_t4_h13 + 4.34492279945755 * u2_t7_h13 + 4.34492279945755 * u2_t9_h13 + 5.68622484327464 * u2_t1_h14 + 5.68622484327464 * u2_t3_h14 + 5.68622484327464 * u2_t4_h14 + 5.68622484327464 * u2_t7_h14 + 5.68622484327464 * u2_t9_h14 + 6.02586954626492 * u2_t1_h15 + 6.02586954626492 * u2_t3_h15 + 6.02586954626492 * u2_t4_h15 + 6.02586954626492 * u2_t7_h15 + 6.02586954626492 * u2_t9_h15 + 6.18998784293662 * u2_t1_h16 + 6.18998784293662 * u2_t3_h16 + 6.18998784293662 * u2_t4_h16 + 6.18998784293662 * u2_t7_h16 + 6.18998784293662 * u2_t9_h16 + 6.13258402071867 * u2_t1_h17 + 6.13258402071867 * u2_t3_h17 + 6.13258402071867 * u2_t4_h17 + 6.13258402071867 * u2_t7_h17 + 6.13258402071867 * u2_t9_h17 + 6.04134644913819 * u2_t1_h18 + 6.04134644913819 * u2_t3_h18 + 6.04134644913819 * u2_t4_h18 + 6.04134644913819 * u2_t6_h18 + 6.04134644913819 * u2_t7_h18 + 5.39238431764714 * u2_t1_h19 + 5.39238431764714 * u2_t3_h19 + 5.39238431764714 * u2_t4_h19 + 5.39238431764714 * u2_t5_h19 + 5.39238431764714 * u2_t6_h19 + 5.39238431764714 * u2_t7_h19 + 5.3227778139129 * u2_t1_h20 + 5.3227778139129 * u2_t3_h20 + 5.3227778139129 * u2_t4_h20 + 5.3227778139129 * u2_t6_h20 + 5.3227778139129 * u2_t7_h20 + 4.89149455646532 * u2_t1_h21 + 4.89149455646532 * u2_t3_h21 + 4.89149455646532 * u2_t6_h21 + 4.89149455646532 * u2_t7_h21 + 4.89149455646532 * u2_t8_h21 + 5.31183605456781 * u2_t1_h22 + 5.31183605456781 * u2_t3_h22 + 5.31183605456781 * u2_t7_h22 + 5.31183605456781 * u2_t8_h22 + 5.6336736725157 * u2_t3_h23 + 5.6336736725157 * u2_t7_h23 + 5.6336736725157 * u2_t8_h23;
0 <= u2_t1_h11 <= 1;
0 <= u2_t1_h12 <= 1;
0 <= u2_t1_h13 <= 1;
0 <= u2_t1_h14 <= 1;
0 <= u2_t1_h15 <= 1;
0 <= u2_t1_h16 <= 1;
0 <= u2_t1_h17 <= 1;
0 <= u2_t1_h18 <= 1;
0 <= u2_t1_h19 <= 1;
0 <= u2_t1_h20 <= 1;
0 <= u2_t1_h21 <= 1;
0 <= u2_t1_h22 <= 1;
u2_t1_h11 + u2_t1_h12 + u2_t1_h13 + u2_t1_h14 + u2_t1_h15 + u2_t1_h16 + u2_t1_h17 + u2_t1_h18 + u2_t1_h19 + u2_t1_h20 + u2_t1_h21 + u2_t1_h22 = 2;
0 <= u2_t2_h5 <= 1;
0 <= u2_t2_h6 <= 1;
0 <= u2_t2_h7 <= 1;
0 <= u2_t2_h8 <= 1;
0 <= u2_t2_h9 <= 1;
0 <= u2_t2_h10 <= 1;
0 <= u2_t2_h11 <= 1;
u2_t2_h5 + u2_t2_h6 + u2_t2_h7 + u2_t2_h8 + u2_t2_h9 + u2_t2_h10 + u2_t2_h11 = 2;
0 <= u2_t3_h5 <= 1;
0 <= u2_t3_h6 <= 1;
0 <= u2_t3_h7 <= 1;
0 <= u2_t3_h8 <= 1;
0 <= u2_t3_h9 <= 1;
0 <= u2_t3_h10 <= 1;
0 <= u2_t3_h11 <= 1;
0 <= u2_t3_h12 <= 1;
0 <= u2_t3_h13 <= 1;
0 <= u2_t3_h14 <= 1;
0 <= u2_t3_h15 <= 1;
0 <= u2_t3_h16 <= 1;
0 <= u2_t3_h17 <= 1;
0 <= u2_t3_h18 <= 1;
0 <= u2_t3_h19 <= 1;
0 <= u2_t3_h20 <= 1;
0 <= u2_t3_h21 <= 1;
0 <= u2_t3_h22 <= 1;
0 <= u2_t3_h23 <= 1;
u2_t3_h5 + u2_t3_h6 + u2_t3_h7 + u2_t3_h8 + u2_t3_h9 + u2_t3_h10 + u2_t3_h11 + u2_t3_h12 + u2_t3_h13 + u2_t3_h14 + u2_t3_h15 + u2_t3_h16 + u2_t3_h17 + u2_t3_h18 + u2_t3_h19 + u2_t3_h20 + u2_t3_h21 + u2_t3_h22 + u2_t3_h23 = 1;
0 <= u2_t4_h6 <= 1;
0 <= u2_t4_h7 <= 1;
0 <= u2_t4_h8 <= 1;
0 <= u2_t4_h9 <= 1;
0 <= u2_t4_h10 <= 1;
0 <= u2_t4_h11 <= 1;
0 <= u2_t4_h12 <= 1;
0 <= u2_t4_h13 <= 1;
0 <= u2_t4_h14 <= 1;
0 <= u2_t4_h15 <= 1;
0 <= u2_t4_h16 <= 1;
0 <= u2_t4_h17 <= 1;
0 <= u2_t4_h18 <= 1;
0 <= u2_t4_h19 <= 1;
0 <= u2_t4_h20 <= 1;
u2_t4_h6 + u2_t4_h7 + u2_t4_h8 + u2_t4_h9 + u2_t4_h10 + u2_t4_h11 + u2_t4_h12 + u2_t4_h13 + u2_t4_h14 + u2_t4_h15 + u2_t4_h16 + u2_t4_h17 + u2_t4_h18 + u2_t4_h19 + u2_t4_h20 = 3;
0 <= u2_t5_h19 <= 1;
u2_t5_h19 = 1;
0 <= u2_t6_h18 <= 1;
0 <= u2_t6_h19 <= 1;
0 <= u2_t6_h20 <= 1;
0 <= u2_t6_h21 <= 1;
u2_t6_h18 + u2_t6_h19 + u2_t6_h20 + u2_t6_h21 = 2;
0 <= u2_t7_h3 <= 1;
0 <= u2_t7_h4 <= 1;
0 <= u2_t7_h5 <= 1;
0 <= u2_t7_h6 <= 1;
0 <= u2_t7_h7 <= 1;
0 <= u2_t7_h8 <= 1;
0 <= u2_t7_h9 <= 1;
0 <= u2_t7_h10 <= 1;
0 <= u2_t7_h11 <= 1;
0 <= u2_t7_h12 <= 1;
0 <= u2_t7_h13 <= 1;
0 <= u2_t7_h14 <= 1;
0 <= u2_t7_h15 <= 1;
0 <= u2_t7_h16 <= 1;
0 <= u2_t7_h17 <= 1;
0 <= u2_t7_h18 <= 1;
0 <= u2_t7_h19 <= 1;
0 <= u2_t7_h20 <= 1;
0 <= u2_t7_h21 <= 1;
0 <= u2_t7_h22 <= 1;
0 <= u2_t7_h23 <= 1;
u2_t7_h3 + u2_t7_h4 + u2_t7_h5 + u2_t7_h6 + u2_t7_h7 + u2_t7_h8 + u2_t7_h9 + u2_t7_h10 + u2_t7_h11 + u2_t7_h12 + u2_t7_h13 + u2_t7_h14 + u2_t7_h15 + u2_t7_h16 + u2_t7_h17 + u2_t7_h18 + u2_t7_h19 + u2_t7_h20 + u2_t7_h21 + u2_t7_h22 + u2_t7_h23 = 3;
0 <= u2_t8_h21 <= 1;
0 <= u2_t8_h22 <= 1;
0 <= u2_t8_h23 <= 1;
u2_t8_h21 + u2_t8_h22 + u2_t8_h23 = 2;
0 <= u2_t9_h13 <= 1;
0 <= u2_t9_h14 <= 1;
0 <= u2_t9_h15 <= 1;
0 <= u2_t9_h16 <= 1;
0 <= u2_t9_h17 <= 1;
u2_t9_h13 + u2_t9_h14 + u2_t9_h15 + u2_t9_h16 + u2_t9_h17 = 1;
0 <= u2_t10_h6 <= 1;
0 <= u2_t10_h7 <= 1;
0 <= u2_t10_h8 <= 1;
0 <= u2_t10_h9 <= 1;
0 <= u2_t10_h10 <= 1;
0 <= u2_t10_h11 <= 1;
u2_t10_h6 + u2_t10_h7 + u2_t10_h8 + u2_t10_h9 + u2_t10_h10 + u2_t10_h11 = 2;
